\ Model shortest_path
\ LP format - for model browsing. Use MPS format to capture full model detail.
Minimize
  0.987 x[1_0,1^0] + 5.583315144248981 x[2_0,2^0] + 3.948 x[2_0,2^1]
   + 9.770801502435715 y[3_0,3^0] + 11.96673902949337 y[3_1,3^0]
   + 13.818 y[3_2,3^0] + 0.987 y[1_0,1^0] + 5.583315144248981 y[2_0,2^0]
   + 3.948 y[2_0,2^1]
Subject To
 UB[1^0,3_0]: x[1^0,3_0] - 2 y[1^0,3_0] <= 0
 UB[2^0,3_0]: x[2^0,3_0] - 2 y[2^0,3_0] <= 0
 UB[1^1,3_1]: x[1^1,3_1] - 2 y[1^1,3_1] <= 0
 UB[2^1,3_1]: x[2^1,3_1] - 2 y[2^1,3_1] <= 0
 UB[2^2,3_2]: x[2^2,3_2] - 2 y[2^2,3_2] <= 0
 UB[3_0,3^0]: x[3_0,3^0] - 2 y[3_0,3^0] <= 0
 UB[3_1,3^0]: x[3_1,3^0] - 2 y[3_1,3^0] <= 0
 UB[3_2,3^0]: x[3_2,3^0] - 2 y[3_2,3^0] <= 0
 UB[1_0,1^0]: x[1_0,1^0] - 2 y[1_0,1^0] <= 0
 UB[1_0,1^1]: x[1_0,1^1] - 2 y[1_0,1^1] <= 0
 UB[2_0,2^0]: x[2_0,2^0] - 2 y[2_0,2^0] <= 0
 UB[2_0,2^1]: x[2_0,2^1] - 2 y[2_0,2^1] <= 0
 UB[2_0,2^2]: x[2_0,2^2] - 2 y[2_0,2^2] <= 0
 netflow[3_0]: x[3_0,3^0] - x[1^0,3_0] - x[2^0,3_0] = 0
 netflow[3_1]: x[3_1,3^0] - x[1^1,3_1] - x[2^1,3_1] = 0
 netflow[3_2]: x[3_2,3^0] - x[2^2,3_2] = 0
 netflow[3^0]: - x[3_0,3^0] - x[3_1,3^0] - x[3_2,3^0] = -2
 netflow[1_0]: x[1_0,1^0] + x[1_0,1^1] = 1
 netflow[1^0]: - x[1_0,1^0] + x[1^0,3_0] = 0
 netflow[1^1]: - x[1_0,1^1] + x[1^1,3_1] = 0
 netflow[2_0]: x[2_0,2^0] + x[2_0,2^1] + x[2_0,2^2] = 1
 netflow[2^0]: - x[2_0,2^0] + x[2^0,3_0] = 0
 netflow[2^1]: - x[2_0,2^1] + x[2^1,3_1] = 0
 netflow[2^2]: - x[2_0,2^2] + x[2^2,3_2] = 0
Bounds
Binaries
 y[1^0,3_0] y[2^0,3_0] y[1^1,3_1] y[2^1,3_1] y[2^2,3_2] y[3_0,3^0]
 y[3_1,3^0] y[3_2,3^0] y[1_0,1^0] y[1_0,1^1] y[2_0,2^0] y[2_0,2^1]
 y[2_0,2^2]
End
